NAME /Users/henri/Research/solvers/instances/idol-instances/robust/collection/cbp_Subramanyam_et_al_2020/CapBud_N20_11/models/uncertain_technology_matrix/
ROWS
 N  OBJ
 L  capacity
 L  c_2860
 L  c_2861
 L  c_2862
 L  c_2863
 L  c_2864
 L  c_2865
 L  c_2866
 L  c_2867
 L  c_2868
 L  c_2869
 L  c_2870
 L  c_2871
 L  c_2872
 L  c_2873
 L  c_2874
 L  c_2875
 L  c_2876
 L  c_2877
 L  c_2878
 L  c_2879
COLUMNS
    MARKER    'MARKER'                 'INTORG'
    x_0        OBJ        -6.99802
    x_0        c_2860     1
    x_0        capacity   1.3996
    x_1        OBJ        -1.77628
    x_1        c_2861     1
    x_1        capacity   0.355256
    x_2        OBJ        -5.00451
    x_2        c_2862     1
    x_2        capacity   1.0009
    x_3        OBJ        -4.8932
    x_3        c_2863     1
    x_3        capacity   0.978641
    x_4        OBJ        -1.91426
    x_4        c_2864     1
    x_4        capacity   0.382851
    x_5        OBJ        -4.60874
    x_5        c_2865     1
    x_5        capacity   0.921748
    x_6        OBJ        -0.00622877
    x_6        c_2866     1
    x_6        capacity   0.00124575
    x_7        OBJ        -0.771128
    x_7        c_2867     1
    x_7        capacity   0.154226
    x_8        OBJ        -4.76232
    x_8        c_2868     1
    x_8        capacity   0.952463
    x_9        OBJ        -8.70245
    x_9        c_2869     1
    x_9        capacity   1.74049
    x_10       OBJ        -0.200111
    x_10       c_2870     1
    x_10       capacity   0.0400222
    x_11       OBJ        -7.9045
    x_11       c_2871     1
    x_11       capacity   1.5809
    x_12       OBJ        -2.89985
    x_12       c_2872     1
    x_12       capacity   0.57997
    x_13       OBJ        -9.26318
    x_13       c_2873     1
    x_13       capacity   1.85264
    x_14       OBJ        -9.29035
    x_14       c_2874     1
    x_14       capacity   1.85807
    x_15       OBJ        -2.26671
    x_15       c_2875     1
    x_15       capacity   0.453343
    x_16       OBJ        -0.783624
    x_16       c_2876     1
    x_16       capacity   0.156725
    x_17       OBJ        -4.46385
    x_17       c_2877     1
    x_17       capacity   0.892769
    x_18       OBJ        -2.14685
    x_18       c_2878     1
    x_18       capacity   0.42937
    x_19       OBJ        -0.464144
    x_19       c_2879     1
    x_19       capacity   0.0928288
    y_0        OBJ        -5.59841
    y_0        c_2860     1
    y_0        capacity   1.3996
    y_1        OBJ        -1.42103
    y_1        c_2861     1
    y_1        capacity   0.355256
    y_2        OBJ        -4.00361
    y_2        c_2862     1
    y_2        capacity   1.0009
    y_3        OBJ        -3.91456
    y_3        c_2863     1
    y_3        capacity   0.978641
    y_4        OBJ        -1.5314
    y_4        c_2864     1
    y_4        capacity   0.382851
    y_5        OBJ        -3.68699
    y_5        c_2865     1
    y_5        capacity   0.921748
    y_6        OBJ        -0.00498302
    y_6        c_2866     1
    y_6        capacity   0.00124575
    y_7        OBJ        -0.616902
    y_7        c_2867     1
    y_7        capacity   0.154226
    y_8        OBJ        -3.80985
    y_8        c_2868     1
    y_8        capacity   0.952463
    y_9        OBJ        -6.96196
    y_9        c_2869     1
    y_9        capacity   1.74049
    y_10       OBJ        -0.160089
    y_10       c_2870     1
    y_10       capacity   0.0400222
    y_11       OBJ        -6.3236
    y_11       c_2871     1
    y_11       capacity   1.5809
    y_12       OBJ        -2.31988
    y_12       c_2872     1
    y_12       capacity   0.57997
    y_13       OBJ        -7.41054
    y_13       c_2873     1
    y_13       capacity   1.85264
    y_14       OBJ        -7.43228
    y_14       c_2874     1
    y_14       capacity   1.85807
    y_15       OBJ        -1.81337
    y_15       c_2875     1
    y_15       capacity   0.453343
    y_16       OBJ        -0.626899
    y_16       c_2876     1
    y_16       capacity   0.156725
    y_17       OBJ        -3.57108
    y_17       c_2877     1
    y_17       capacity   0.892769
    y_18       OBJ        -1.71748
    y_18       c_2878     1
    y_18       capacity   0.42937
    y_19       OBJ        -0.371315
    y_19       c_2879     1
    y_19       capacity   0.0928288
    MARKER    'MARKER'                 'INTEND'
RHS
    RHS       capacity   39.5601
    RHS       c_2860     1
    RHS       c_2861     1
    RHS       c_2862     1
    RHS       c_2863     1
    RHS       c_2864     1
    RHS       c_2865     1
    RHS       c_2866     1
    RHS       c_2867     1
    RHS       c_2868     1
    RHS       c_2869     1
    RHS       c_2870     1
    RHS       c_2871     1
    RHS       c_2872     1
    RHS       c_2873     1
    RHS       c_2874     1
    RHS       c_2875     1
    RHS       c_2876     1
    RHS       c_2877     1
    RHS       c_2878     1
    RHS       c_2879     1
BOUNDS
 LI BND       x_0        0
 UI BND       x_0        1
 LI BND       x_1        0
 UI BND       x_1        1
 LI BND       x_2        0
 UI BND       x_2        1
 LI BND       x_3        0
 UI BND       x_3        1
 LI BND       x_4        0
 UI BND       x_4        1
 LI BND       x_5        0
 UI BND       x_5        1
 LI BND       x_6        0
 UI BND       x_6        1
 LI BND       x_7        0
 UI BND       x_7        1
 LI BND       x_8        0
 UI BND       x_8        1
 LI BND       x_9        0
 UI BND       x_9        1
 LI BND       x_10       0
 UI BND       x_10       1
 LI BND       x_11       0
 UI BND       x_11       1
 LI BND       x_12       0
 UI BND       x_12       1
 LI BND       x_13       0
 UI BND       x_13       1
 LI BND       x_14       0
 UI BND       x_14       1
 LI BND       x_15       0
 UI BND       x_15       1
 LI BND       x_16       0
 UI BND       x_16       1
 LI BND       x_17       0
 UI BND       x_17       1
 LI BND       x_18       0
 UI BND       x_18       1
 LI BND       x_19       0
 UI BND       x_19       1
 LI BND       y_0        0
 UI BND       y_0        1
 LI BND       y_1        0
 UI BND       y_1        1
 LI BND       y_2        0
 UI BND       y_2        1
 LI BND       y_3        0
 UI BND       y_3        1
 LI BND       y_4        0
 UI BND       y_4        1
 LI BND       y_5        0
 UI BND       y_5        1
 LI BND       y_6        0
 UI BND       y_6        1
 LI BND       y_7        0
 UI BND       y_7        1
 LI BND       y_8        0
 UI BND       y_8        1
 LI BND       y_9        0
 UI BND       y_9        1
 LI BND       y_10       0
 UI BND       y_10       1
 LI BND       y_11       0
 UI BND       y_11       1
 LI BND       y_12       0
 UI BND       y_12       1
 LI BND       y_13       0
 UI BND       y_13       1
 LI BND       y_14       0
 UI BND       y_14       1
 LI BND       y_15       0
 UI BND       y_15       1
 LI BND       y_16       0
 UI BND       y_16       1
 LI BND       y_17       0
 UI BND       y_17       1
 LI BND       y_18       0
 UI BND       y_18       1
 LI BND       y_19       0
 UI BND       y_19       1
ENDATA
